c CNF file generated from BLIF2CNF script.
c Original BLIF file was blif/cc.blif
p cnf 115 265
1 -4 0
2 -4 0
4 -1 -2  0
-4 3 0
-3 4  0
5 -10 0
-6 -10 0
7 -10 0
8 -10 0
10 -5 6 -7 -8  0
-10 9 0
-9 10  0
6 -14 0
-12 -14 0
14 -6 12  0
-14 13 0
-11 -15 0
-12 -15 0
15 11 12  0
-15 13 0
-13 14 15  0
5 -18 0
-16 -18 0
18 -5 16  0
-18 17 0
-17 18  0
-19 -21 0
21 19  0
-21 20 0
-20 21  0
22 -24 0
8 -24 0
24 -22 -8  0
-24 23 0
-23 24  0
-23 -26 0
26 23  0
-26 25 0
-25 26  0
27 -30 0
-28 -30 0
30 -27 28  0
-30 29 0
-11 -31 0
-28 -31 0
31 11 28  0
-31 29 0
-29 30 31  0
6 -35 0
-33 -35 0
35 -6 33  0
-35 34 0
-32 -36 0
-33 -36 0
36 32 33  0
-36 34 0
-34 35 36  0
-7 -40 0
-38 -40 0
40 7 38  0
-40 39 0
-8 -41 0
-38 -41 0
41 8 38  0
-41 39 0
-37 -42 0
-38 -42 0
42 37 38  0
-42 39 0
-39 40 41 42  0
-11 -46 0
-44 -46 0
46 11 44  0
-46 45 0
-6 -47 0
43 -47 0
-44 -47 0
47 6 -43 44  0
-47 45 0
-45 46 47  0
48 -51 0
-49 -51 0
51 -48 49  0
-51 50 0
-11 -52 0
-49 -52 0
52 11 49  0
-52 50 0
-50 51 52  0
19 -55 0
-53 -55 0
55 -19 53  0
-55 54 0
-11 -56 0
-53 -56 0
56 11 53  0
-56 54 0
-54 55 56  0
57 -60 0
-58 -60 0
60 -57 58  0
-60 59 0
-11 -61 0
-58 -61 0
61 11 58  0
-61 59 0
-59 60 61  0
1 -64 0
-62 -64 0
64 -1 62  0
-64 63 0
-11 -65 0
-62 -65 0
65 11 62  0
-65 63 0
-63 64 65  0
5 -66 0
66 -5  0
-66 11 0
-7 -67 0
67 7  0
-67 11 0
-8 -68 0
68 8  0
-68 11 0
-11 66 67 68  0
-70 -71 0
71 70  0
-71 28 0
-69 -72 0
8 -72 0
7 -72 0
-5 -72 0
72 69 -8 -7 5  0
-72 28 0
-28 71 72  0
-5 -73 0
73 5  0
-73 32 0
-7 -74 0
74 7  0
-74 32 0
-8 -75 0
75 8  0
-75 32 0
-32 73 74 75  0
-70 -77 0
77 70  0
-77 33 0
76 -78 0
8 -78 0
7 -78 0
-5 -78 0
78 -76 -8 -7 5  0
-78 33 0
-33 77 78  0
5 -80 0
80 -5  0
-80 37 0
-79 -81 0
81 79  0
-81 37 0
-37 80 81  0
-70 -82 0
82 70  0
-82 38 0
-8 -83 0
-5 -83 0
83 8 5  0
-83 38 0
-7 -84 0
-5 -84 0
84 7 5  0
-84 38 0
-38 82 83 84  0
-70 -86 0
86 70  0
-86 44 0
-85 -87 0
8 -87 0
7 -87 0
-5 -87 0
87 85 -8 -7 5  0
-87 44 0
-44 86 87  0
-70 -89 0
89 70  0
-89 49 0
-88 -90 0
8 -90 0
7 -90 0
-5 -90 0
90 88 -8 -7 5  0
-90 49 0
-49 89 90  0
-70 -92 0
92 70  0
-92 53 0
-91 -93 0
8 -93 0
7 -93 0
-5 -93 0
93 91 -8 -7 5  0
-93 53 0
-53 92 93  0
-70 -95 0
95 70  0
-95 58 0
-94 -96 0
8 -96 0
7 -96 0
-5 -96 0
96 94 -8 -7 5  0
-96 58 0
-58 95 96  0
-70 -98 0
98 70  0
-98 62 0
-97 -99 0
8 -99 0
7 -99 0
-5 -99 0
99 97 -8 -7 5  0
-99 62 0
-62 98 99  0
-70 -100 0
100 70  0
-100 12 0
2 -101 0
101 -2  0
-101 12 0
-12 100 101  0
6 -102 0
102 -6  0
-102 16 0
-70 -103 0
103 70  0
-103 16 0
-7 -104 0
104 7  0
-104 16 0
-8 -105 0
105 8  0
-105 16 0
-16 102 103 104 105  0
57 -107 0
107 -57  0
-107 106 0
-106 107  0
5 -109 0
109 -5  0
-109 108 0
-108 109  0
48 -111 0
111 -48  0
-111 110 0
-110 111  0
43 -113 0
113 -43  0
-113 112 0
-112 113  0
6 -115 0
115 -6  0
-115 114 0
-114 115  0
